181 300 87 59 97 71 67 79 81 96 87 94 60 63 85 56 76 73 67 91 57 91 82 62 53 58 57 89 96 99 55 67 81 92 50 52 87 68 81 92 63 92 85 73 54 95 53 54 67 70 95 99 86 50 85 63 59 92 51 79 64 56 70 70 73 71 72 59 89 77 51 76 68 60 99 97 54 76 51 71 70 70 95 55 71 79 68 80 71 70 83 59 50 53 79 73 74 75 83 87 51 58 62 94 68 85 65 98 60 66 93 54 60 87 60 81 66 52 85 61 97 68 70 98 96 100 95 94 74 51 80 50 59 66 68 52 50 83 100 85 73 92 89 84 53 73 89 69 50 99 54 71 66 74 93 86 98 88 79 97 89 83 97 73 99 89 100 73 72 99 57 69 64 70 77 92 68 66 85 93 64 89 63 